\ Model Multi-Period Capacitated Facility Location Problem with SLAs
\ LP format - for model browsing. Use MPS format to capture full model detail.
Minimize
  119.2248022346 y[0] + 70.95071559989999 y[1] + 91.4806203607 y[2]
   + 5.5366139819 x[0,0,0] + 5.5366139819 x[0,0,1] + 23.5619292895 x[0,1,0]
   + 23.5619292895 x[0,1,1] + 29.6494083966 x[0,2,0]
   + 29.6494083966 x[0,2,1] + 8.8994057154 x[0,3,0] + 8.8994057154 x[0,3,1]
   + 24.0462977497 x[1,0,0] + 24.0462977497 x[1,0,1]
   + 10.9991415116 x[1,1,0] + 10.9991415116 x[1,1,1]
   + 28.5193867079 x[1,2,0] + 28.5193867079 x[1,2,1]
   + 63.9327599822 x[1,3,0] + 63.9327599822 x[1,3,1]
   + 37.118385718 x[2,0,0] + 37.118385718 x[2,0,1] + 37.6479157446 x[2,1,0]
   + 37.6479157446 x[2,1,1] + 21.7411960464 x[2,2,0]
   + 21.7411960464 x[2,2,1] + 27.4308043829 x[2,3,0]
   + 27.4308043829 x[2,3,1]
Subject To
 demand_0_period_0: x[0,0,0] + x[1,0,0] + x[2,0,0] >= 71.046143476219
 demand_0_period_1: x[0,0,1] + x[1,0,1] + x[2,0,1] >= 60.059626443814
 demand_1_period_0: x[0,1,0] + x[1,1,0] + x[2,1,0] >= 52.46398362238
 demand_1_period_1: x[0,1,1] + x[1,1,1] + x[2,1,1] >= 44.35099646427999
 demand_2_period_0: x[0,2,0] + x[1,2,0] + x[2,2,0] >= 94.41830681498
 demand_2_period_1: x[0,2,1] + x[1,2,1] + x[2,2,1] >= 79.81753771987999
 demand_3_period_0: x[0,3,0] + x[1,3,0] + x[2,3,0] >= 37.320656243292
 demand_3_period_1: x[0,3,1] + x[1,3,1] + x[2,3,1] >= 31.54942074175199
 capacity_0_period_0: - 55.652022496 y[0] + x[0,0,0] + x[0,1,0] + x[0,2,0]
   + x[0,3,0] <= 0
 capacity_0_period_1: - 83.111061761 y[0] + x[0,0,1] + x[0,1,1] + x[0,2,1]
   + x[0,3,1] <= 0
 capacity_1_period_0: - 62.2334554841 y[1] + x[1,0,0] + x[1,1,0] + x[1,2,0]
   + x[1,3,0] <= 0
 capacity_1_period_1: - 86.3089831308 y[1] + x[1,0,1] + x[1,1,1] + x[1,2,1]
   + x[1,3,1] <= 0
 capacity_2_period_0: - 58.1578623804 y[2] + x[2,0,0] + x[2,1,0] + x[2,2,0]
   + x[2,3,0] <= 0
 capacity_2_period_1: - 70.7526117853 y[2] + x[2,0,1] + x[2,1,1] + x[2,2,1]
   + x[2,3,1] <= 0
Bounds
Binaries
 y[0] y[1] y[2]
End
